data/instances/vrp_files/train_39.vrp
NAME : 39
COMMENT : Generated instance No. 39
TYPE : CVRP
DIMENSION : 21
EDGE_WEIGHT_TYPE : EUC_2D
CAPACITY : 30
NODE_COORD_SECTION
 1 219 36
 2 517 430
 3 316 434
 4 773 601
 5 892 443
 6 607 631
 7 591 702
 8 237 512
 9 104 384
 10 487 652
 11 950 600
 12 743 506
 13 634 70
 14 254 361
 15 472 45
 16 140 276
 17 971 331
 18 482 196
 19 610 280
 20 206 516
 21 5 7
DEMAND_SECTION
1 0
2 1
3 10
4 7
5 5
6 5
7 1
8 10
9 6
10 9
11 9
12 8
13 5
14 1
15 9
16 1
17 8
18 5
19 3
20 7
21 7
DEPOT_SECTION
 1
 -1
EOF